data;

param n:=30;
param p:=4;
param r:=[1] 0 [2] 3 [3] 6 [4] 1 [5] 14 [6] 9 [7] 12 [8] 25 [9] 9 [10] 33 [11] 29 [12] 5 [13] 18 [14] 0 [15] 53 [16] 39 [17] 2 [18] 15 [19] 46 [20] 4 [21] 29 [22] 16 [23] 78 [24] 23 [25] 77 [26] 1 [27] 18 [28] 12 [29] 98 [30] 47 ;
param w:=[1] 19 [2] 69 [3] 72 [4] 63 [5] 35 [6] 32 [7] 71 [8] 31 [9] 75 [10] 18 [11] 27 [12] 51 [13] 98 [14] 67 [15] 40 [16] 2 [17] 38 [18] 63 [19] 19 [20] 35 [21] 57 [22] 80 [23] 52 [24] 72 [25] 67 [26] 96 [27] 77 [28] 90 [29] 66 [30] 60 ;

end;
